sat
(:max-memory         18.62
 :memory             18.43
 :nlsat-arith-var    3
 :nlsat-atoms        10
 :nlsat-bool-var     1
 :nlsat-clauses      8
 :nlsat-conflicts    2
 :nlsat-propagations 16
 :nlsat-stages       6
 :num-allocs         77175
 :rlimit-count       5449
 :time               0.01
 :total-time         0.02)
